certificates/rado_a5_c199_N39.cnf
c Rad2 upper bound instance: x1 + 5*x2 - x3 = 199, interval [1,39]
p cnf 39 280
1 5 39 0
-1 -5 -39 0
2 6 39 0
-2 -6 -39 0
3 7 39 0
-3 -7 -39 0
4 8 39 0
-4 -8 -39 0
5 9 39 0
-5 -9 -39 0
1 10 38 0
-1 -10 -38 0
6 10 39 0
-6 -10 -39 0
2 11 38 0
-2 -11 -38 0
7 11 39 0
-7 -11 -39 0
3 12 38 0
-3 -12 -38 0
8 12 39 0
-8 -12 -39 0
4 13 38 0
-4 -13 -38 0
9 13 39 0
-9 -13 -39 0
5 14 38 0
-5 -14 -38 0
10 14 39 0
-10 -14 -39 0
1 15 37 0
-1 -15 -37 0
6 15 38 0
-6 -15 -38 0
11 15 39 0
-11 -15 -39 0
2 16 37 0
-2 -16 -37 0
7 16 38 0
-7 -16 -38 0
12 16 39 0
-12 -16 -39 0
3 17 37 0
-3 -17 -37 0
8 17 38 0
-8 -17 -38 0
13 17 39 0
-13 -17 -39 0
4 18 37 0
-4 -18 -37 0
9 18 38 0
-9 -18 -38 0
14 18 39 0
-14 -18 -39 0
5 19 37 0
-5 -19 -37 0
10 19 38 0
-10 -19 -38 0
15 19 39 0
-15 -19 -39 0
1 20 36 0
-1 -20 -36 0
6 20 37 0
-6 -20 -37 0
11 20 38 0
-11 -20 -38 0
16 20 39 0
-16 -20 -39 0
2 21 36 0
-2 -21 -36 0
7 21 37 0
-7 -21 -37 0
12 21 38 0
-12 -21 -38 0
17 21 39 0
-17 -21 -39 0
3 22 36 0
-3 -22 -36 0
8 22 37 0
-8 -22 -37 0
13 22 38 0
-13 -22 -38 0
18 22 39 0
-18 -22 -39 0
4 23 36 0
-4 -23 -36 0
9 23 37 0
-9 -23 -37 0
14 23 38 0
-14 -23 -38 0
19 23 39 0
-19 -23 -39 0
5 24 36 0
-5 -24 -36 0
10 24 37 0
-10 -24 -37 0
15 24 38 0
-15 -24 -38 0
20 24 39 0
-20 -24 -39 0
1 25 35 0
-1 -25 -35 0
6 25 36 0
-6 -25 -36 0
11 25 37 0
-11 -25 -37 0
16 25 38 0
-16 -25 -38 0
21 25 39 0
-21 -25 -39 0
2 26 35 0
-2 -26 -35 0
7 26 36 0
-7 -26 -36 0
12 26 37 0
-12 -26 -37 0
17 26 38 0
-17 -26 -38 0
22 26 39 0
-22 -26 -39 0
3 27 35 0
-3 -27 -35 0
8 27 36 0
-8 -27 -36 0
13 27 37 0
-13 -27 -37 0
18 27 38 0
-18 -27 -38 0
23 27 39 0
-23 -27 -39 0
4 28 35 0
-4 -28 -35 0
9 28 36 0
-9 -28 -36 0
14 28 37 0
-14 -28 -37 0
19 28 38 0
-19 -28 -38 0
24 28 39 0
-24 -28 -39 0
5 29 35 0
-5 -29 -35 0
10 29 36 0
-10 -29 -36 0
15 29 37 0
-15 -29 -37 0
20 29 38 0
-20 -29 -38 0
25 29 39 0
-25 -29 -39 0
1 30 34 0
-1 -30 -34 0
6 30 35 0
-6 -30 -35 0
11 30 36 0
-11 -30 -36 0
16 30 37 0
-16 -30 -37 0
21 30 38 0
-21 -30 -38 0
26 30 39 0
-26 -30 -39 0
2 31 34 0
-2 -31 -34 0
7 31 35 0
-7 -31 -35 0
12 31 36 0
-12 -31 -36 0
17 31 37 0
-17 -31 -37 0
22 31 38 0
-22 -31 -38 0
27 31 39 0
-27 -31 -39 0
3 32 34 0
-3 -32 -34 0
8 32 35 0
-8 -32 -35 0
13 32 36 0
-13 -32 -36 0
18 32 37 0
-18 -32 -37 0
23 32 38 0
-23 -32 -38 0
28 32 39 0
-28 -32 -39 0
4 33 34 0
-4 -33 -34 0
9 33 35 0
-9 -33 -35 0
14 33 36 0
-14 -33 -36 0
19 33 37 0
-19 -33 -37 0
24 33 38 0
-24 -33 -38 0
29 33 39 0
-29 -33 -39 0
5 34 0
-5 -34 0
10 34 35 0
-10 -34 -35 0
15 34 36 0
-15 -34 -36 0
20 34 37 0
-20 -34 -37 0
25 34 38 0
-25 -34 -38 0
30 34 39 0
-30 -34 -39 0
1 33 35 0
-1 -33 -35 0
6 34 35 0
-6 -34 -35 0
11 35 0
-11 -35 0
16 35 36 0
-16 -35 -36 0
21 35 37 0
-21 -35 -37 0
26 35 38 0
-26 -35 -38 0
31 35 39 0
-31 -35 -39 0
2 33 36 0
-2 -33 -36 0
7 34 36 0
-7 -34 -36 0
12 35 36 0
-12 -35 -36 0
17 36 0
-17 -36 0
22 36 37 0
-22 -36 -37 0
27 36 38 0
-27 -36 -38 0
32 36 39 0
-32 -36 -39 0
3 33 37 0
-3 -33 -37 0
8 34 37 0
-8 -34 -37 0
13 35 37 0
-13 -35 -37 0
18 36 37 0
-18 -36 -37 0
23 37 0
-23 -37 0
28 37 38 0
-28 -37 -38 0
33 37 39 0
-33 -37 -39 0
4 33 38 0
-4 -33 -38 0
9 34 38 0
-9 -34 -38 0
14 35 38 0
-14 -35 -38 0
19 36 38 0
-19 -36 -38 0
24 37 38 0
-24 -37 -38 0
29 38 0
-29 -38 0
34 38 39 0
-34 -38 -39 0
5 33 39 0
-5 -33 -39 0
10 34 39 0
-10 -34 -39 0
15 35 39 0
-15 -35 -39 0
20 36 39 0
-20 -36 -39 0
25 37 39 0
-25 -37 -39 0
30 38 39 0
-30 -38 -39 0
35 39 0
-35 -39 0
