certificates/rado_a5_c199_N39.drat
-38 -39 0
-39 0
35 0
-11 0
7 0
15 0
-31 0
27 0
-3 0
38 0
-29 0
-26 0
-14 0
-16 0
-6 0
-24 0
-18 0
-36 0
25 0
33 0
22 0
30 0
10 0
0
